\ENCODING=ISO-8859-1
\Problem name: 

Minimize
 obj1: 5 u0 + 23 u1 + 4 u2 + 108 u3 + 45 u4 + 6 u5 + 9 u6 + 6 u7 + 15 u8 + 6 u9
       + 4 u10 + 6 u11 + 33 u12 + 2 u13 + 12 u14 + 6 u15 + 2 u16 + 29 u17
       + 9 u18 + 9 u19 + 20 u20 + 406 u21 + 5 u22 + 44 u23 + 23 u24 + 3 u25
       + 24 u26 + 5 u27 + 25 u28 + 10 u29 + 8 u30 + 15 u31 + 19 u32 + 62 u33
       + 9 u34 + 4 u35 + 7 u36 + 12 u37 + 177 u38 + 34 u39 + 21 u40 + 150 u41
       + 74 u42 + 71 u43 + 29 u44 + 3 u45 + 9 u46 + 12 u47 + 11 u48 + 48 u49
       + 139 u50 + 9 u51 + 6 u52 + 9 u53 + 41 u54 + 48 u55 + 2 u56 + 28 u57
       + 70 u58 + 7 u59 + 27 u60 + 18 u61 + 62 u62 + 11 u63 + 3 u64 + u65
       + 44 u66 + 2 u67 + 15 u68 + 223 u69 + 103 u70 + 8 u71 + u72 + 7 u73
       + 29 u74 + 4 u75 + 29 u76 + 9 u77 + 5 u78 + 9 u79 + 3 u80 + 18 u81
       + 23 u82 + 16 u83 + u84 + 55 u85 + 10 u86 + 30 u87 + 10 u88 + 33 u89
       + 23 u90 + 8 u91 + 6 u92 + 58 u93 + 39 u94 + 40 u95 + 8 u96 + 28 u97
       + 17 u98 + 111 u99 + 2 u100 + 17 u101 + 5 u102 + 10 u103 + 23 u104
       + 13 u105 + 85 u106 + 121 u107 + 34 u108 + 3 u109 + 8 u110 + 22 u111
       + 6 u112 + 10 u113 + 3 u114 + u115 + 18 u116 + 9 u117 + 51 u118
       + 10 u119 + 20 u120 + 37 u121 + 10 u122 + 19 u123 + 49 u124 + 2 u125
       + 2 u126 + 10 u127 + 11 u128 + 5 u129 + 7 u130 + 39 u131 + 9 u132
       + 45 u133 + 7 u134 + u135 + 10 u136 + 13 u137 + 24 u138 + 25 u139
       + 13 u140 + 161 u141 + 16 u142 + 3 u143 + 40 u144 + 120 u145 + 10 u146
       + 9 u147 + 53 u148 + 38 u149 + 18 u150 + 37 u151 + 73 u152 + 15 u153
       + 13 u154 + 105 u155 + 28 u156 + 18 u157 + 58 u158 + 22 u159 + 10 u160
       + 99 u161 + 6 u162 + 472 u163 + 46 u164 + 62 u165 + 426 u166 + 77 u167
       + 15 u168 + 14 u169 + 52 u170 + 8 u171 + 16 u172 + 30 u173 + 8 u174
       + 9 u175 + 5 u176 + 4 u177 + 7 u178 + 3 u179 + 161 u180 + 38 u181
       + 42 u182 + 6 u183 + 102 u184 + 18 u185 + 2 u186 + 3 u187 + 18 u188
       + 37 u189 + 3 u190 + 4 u191 + 11 u192 + 11 u193 + 2 u194 + 29 u195
       + 71 u196 + 17 u197 + 40 u198 + 9 u199 + 7 u200 + 19 u201 + 7 u202
       + 30 u203 + 22 u204 + u205 + 9 u206 + 7 u207 + 51 u208 + 54 u209
       + 102 u210 + 8 u211 + 26 u212 + 69 u213 + 13 u214 + 36 u215 + 9 u216
       + 14 u217 + 26 u218 + 147 u219 + 6 u220 + 16 u221 + 53 u222 + 6 u223
       + 407 u224 + 2 u225 + 19 u226 + 38 u227 + 29 u228 + 28 u229 + 17 u230
       + 6 u231 + 74 u232 + 38 u233 + 8 u234 + 85 u235 + 5 u236 + 16 u237
       + 10 u238 + 48 u239
Subject To
 c1:   s0 + s1 + s2 + s3 + s4 + s5 + s6 + s7 + s8 + s9 + s10 + s11 + s12 + s13
       + s14 + s15 + s16 + s17 + s18 + s19 + s20 + s21 + s22 + s23 + s24 + s25
       + s26 + s27 + s28 + s29 + s30 + s31 + s32 + s33 + s34 + s35 + s36 + s37
       + s38 + s39 + s40 + s41 + s42 + s43 + s44 + s45 + s46 + s47 + s48 + s49
       + s50 + s51 + s52 + s53 + s54 + s55 + s56 + s57 + s58 + s59  = 15
 c2:   u0 + s9 >= 1
 c3:   u0 + s34 >= 1
 c4:   u1 + s17 >= 1
 c5:   u1 + s44 >= 1
 c6:   u2 + s3 >= 1
 c7:   u2 + s45 >= 1
 c8:   u2 + s57 >= 1
 c9:   u3  = 0
 c10:  u4  = 0
 c11:  u5  = 0
 c12:  u6 + s4 >= 1
 c13:  u7 + s56 >= 1
 c14:  u8 + s7 >= 1
 c15:  u8 + s10 >= 1
 c16:  u8 + s40 >= 1
 c17:  u9 + s9 >= 1
 c18:  u9 + s47 >= 1
 c19:  u9 + s54 >= 1
 c20:  u10 + s31 >= 1
 c21:  u11 + s11 >= 1
 c22:  u11 + s13 >= 1
 c23:  u11 + s26 >= 1
 c24:  u11 + s39 >= 1
 c25:  u11 + s51 >= 1
 c26:  u12  = 0
 c27:  u13 + s34 >= 1
 c28:  u14 + s49 >= 1
 c29:  u15 + s4 >= 1
 c30:  u15 + s17 >= 1
 c31:  u15 + s44 >= 1
 c32:  u15 + s48 >= 1
 c33:  u16 + s1 >= 1
 c34:  u16 + s16 >= 1
 c35:  u17 + s14 >= 1
 c36:  u17 + s20 >= 1
 c37:  u17 + s47 >= 1
 c38:  u18 + s56 >= 1
 c39:  u19  = 0
 c40:  u20 + s18 >= 1
 c41:  u20 + s25 >= 1
 c42:  u21 + s29 >= 1
 c43:  u22 + s27 >= 1
 c44:  u22 + s32 >= 1
 c45:  u22 + s52 >= 1
 c46:  u23 + s22 >= 1
 c47:  u24 + s5 >= 1
 c48:  u24 + s7 >= 1
 c49:  u24 + s10 >= 1
 c50:  u25  = 0
 c51:  u26 + s27 >= 1
 c52:  u26 + s38 >= 1
 c53:  u26 + s55 >= 1
 c54:  u26 + s58 >= 1
 c55:  u27 + s24 >= 1
 c56:  u27 + s30 >= 1
 c57:  u27 + s59 >= 1
 c58:  u28 + s28 >= 1
 c59:  u29 + s53 >= 1
 c60:  u30 + s4 >= 1
 c61:  u30 + s21 >= 1
 c62:  u30 + s44 >= 1
 c63:  u30 + s48 >= 1
 c64:  u31 + s4 >= 1
 c65:  u31 + s21 >= 1
 c66:  u32  = 0
 c67:  u33 + s53 >= 1
 c68:  u34 + s17 >= 1
 c69:  u35 + s42 >= 1
 c70:  u36  = 0
 c71:  u37 + s14 >= 1
 c72:  u37 + s19 >= 1
 c73:  u37 + s20 >= 1
 c74:  u37 + s47 >= 1
 c75:  u38 + s11 >= 1
 c76:  u38 + s13 >= 1
 c77:  u38 + s26 >= 1
 c78:  u38 + s39 >= 1
 c79:  u38 + s51 >= 1
 c80:  u39  = 0
 c81:  u40 + s0 >= 1
 c82:  u41 + s40 >= 1
 c83:  u41 + s55 >= 1
 c84:  u41 + s58 >= 1
 c85:  u42 + s30 >= 1
 c86:  u43  = 0
 c87:  u44  = 0
 c88:  u45 + s35 >= 1
 c89:  u45 + s55 >= 1
 c90:  u46 + s10 >= 1
 c91:  u46 + s42 >= 1
 c92:  u47 + s32 >= 1
 c93:  u48 + s56 >= 1
 c94:  u49 + s5 >= 1
 c95:  u49 + s7 >= 1
 c96:  u49 + s10 >= 1
 c97:  u50 + s20 >= 1
 c98:  u51 + s9 >= 1
 c99:  u51 + s34 >= 1
 c100: u52 + s14 >= 1
 c101: u52 + s20 >= 1
 c102: u52 + s47 >= 1
 c103: u53 + s1 >= 1
 c104: u54 + s10 >= 1
 c105: u54 + s42 >= 1
 c106: u55  = 0
 c107: u56 + s31 >= 1
 c108: u57 + s1 >= 1
 c109: u57 + s28 >= 1
 c110: u58  = 0
 c111: u59  = 0
 c112: u60 + s15 >= 1
 c113: u61 + s37 >= 1
 c114: u61 + s48 >= 1
 c115: u62 + s4 >= 1
 c116: u62 + s21 >= 1
 c117: u62 + s48 >= 1
 c118: u63 + s31 >= 1
 c119: u64 + s56 >= 1
 c120: u65  = 0
 c121: u66 + s9 >= 1
 c122: u66 + s47 >= 1
 c123: u66 + s54 >= 1
 c124: u67 + s5 >= 1
 c125: u68 + s6 >= 1
 c126: u68 + s51 >= 1
 c127: u69 + s3 >= 1
 c128: u69 + s45 >= 1
 c129: u69 + s57 >= 1
 c130: u70 + s8 >= 1
 c131: u70 + s59 >= 1
 c132: u71 + s30 >= 1
 c133: u72 + s8 >= 1
 c134: u72 + s59 >= 1
 c135: u73  = 0
 c136: u74 + s11 >= 1
 c137: u74 + s13 >= 1
 c138: u74 + s26 >= 1
 c139: u74 + s39 >= 1
 c140: u74 + s41 >= 1
 c141: u75  = 0
 c142: u76 + s29 >= 1
 c143: u76 + s56 >= 1
 c144: u77 + s43 >= 1
 c145: u77 + s45 >= 1
 c146: u78 + s1 >= 1
 c147: u78 + s28 >= 1
 c148: u79 + s2 >= 1
 c149: u79 + s15 >= 1
 c150: u79 + s33 >= 1
 c151: u79 + s36 >= 1
 c152: u79 + s38 >= 1
 c153: u80  = 0
 c154: u81 + s33 >= 1
 c155: u81 + s36 >= 1
 c156: u82  = 0
 c157: u83 + s0 >= 1
 c158: u83 + s23 >= 1
 c159: u84  = 0
 c160: u85 + s2 >= 1
 c161: u85 + s15 >= 1
 c162: u85 + s40 >= 1
 c163: u86 + s6 >= 1
 c164: u86 + s21 >= 1
 c165: u86 + s51 >= 1
 c166: u87 + s22 >= 1
 c167: u87 + s31 >= 1
 c168: u88 + s3 >= 1
 c169: u88 + s5 >= 1
 c170: u88 + s55 >= 1
 c171: u88 + s57 >= 1
 c172: u88 + s58 >= 1
 c173: u89 + s2 >= 1
 c174: u89 + s15 >= 1
 c175: u90 + s1 >= 1
 c176: u91 + s22 >= 1
 c177: u92 + s6 >= 1
 c178: u92 + s21 >= 1
 c179: u92 + s48 >= 1
 c180: u93 + s2 >= 1
 c181: u93 + s15 >= 1
 c182: u93 + s40 >= 1
 c183: u94 + s1 >= 1
 c184: u95  = 0
 c185: u96  = 0
 c186: u97  = 0
 c187: u98  = 0
 c188: u99 + s30 >= 1
 c189: u99 + s59 >= 1
 c190: u100 + s9 >= 1
 c191: u100 + s43 >= 1
 c192: u100 + s54 >= 1
 c193: u101  = 0
 c194: u102 + s53 >= 1
 c195: u103 + s8 >= 1
 c196: u103 + s24 >= 1
 c197: u103 + s30 >= 1
 c198: u103 + s59 >= 1
 c199: u104 + s11 >= 1
 c200: u104 + s13 >= 1
 c201: u104 + s26 >= 1
 c202: u104 + s39 >= 1
 c203: u105 + s4 >= 1
 c204: u105 + s17 >= 1
 c205: u105 + s44 >= 1
 c206: u106  = 0
 c207: u107 + s4 >= 1
 c208: u107 + s17 >= 1
 c209: u107 + s44 >= 1
 c210: u107 + s48 >= 1
 c211: u108 + s13 >= 1
 c212: u108 + s39 >= 1
 c213: u108 + s41 >= 1
 c214: u108 + s56 >= 1
 c215: u109 + s1 >= 1
 c216: u109 + s16 >= 1
 c217: u110 + s31 >= 1
 c218: u111  = 0
 c219: u112 + s10 >= 1
 c220: u112 + s42 >= 1
 c221: u113 + s37 >= 1
 c222: u114 + s43 >= 1
 c223: u114 + s45 >= 1
 c224: u115 + s59 >= 1
 c225: u116  = 0
 c226: u117 + s41 >= 1
 c227: u118 + s27 >= 1
 c228: u118 + s32 >= 1
 c229: u118 + s52 >= 1
 c230: u119 + s2 >= 1
 c231: u119 + s15 >= 1
 c232: u120 + s56 >= 1
 c233: u121 + s16 >= 1
 c234: u122 + s14 >= 1
 c235: u122 + s20 >= 1
 c236: u123 + s49 >= 1
 c237: u123 + s53 >= 1
 c238: u124  = 0
 c239: u125 + s28 >= 1
 c240: u125 + s42 >= 1
 c241: u126  = 0
 c242: u127  = 0
 c243: u128  = 0
 c244: u129 + s19 >= 1
 c245: u129 + s43 >= 1
 c246: u129 + s45 >= 1
 c247: u129 + s54 >= 1
 c248: u130 + s6 >= 1
 c249: u130 + s51 >= 1
 c250: u131 + s27 >= 1
 c251: u131 + s35 >= 1
 c252: u131 + s52 >= 1
 c253: u132 + s7 >= 1
 c254: u132 + s10 >= 1
 c255: u133 + s30 >= 1
 c256: u134  = 0
 c257: u135 + s14 >= 1
 c258: u135 + s20 >= 1
 c259: u135 + s47 >= 1
 c260: u136 + s0 >= 1
 c261: u136 + s12 >= 1
 c262: u136 + s23 >= 1
 c263: u137  = 0
 c264: u138 + s17 >= 1
 c265: u138 + s44 >= 1
 c266: u139 + s11 >= 1
 c267: u139 + s13 >= 1
 c268: u139 + s26 >= 1
 c269: u139 + s39 >= 1
 c270: u139 + s51 >= 1
 c271: u140 + s7 >= 1
 c272: u140 + s10 >= 1
 c273: u140 + s42 >= 1
 c274: u141 + s5 >= 1
 c275: u141 + s7 >= 1
 c276: u141 + s10 >= 1
 c277: u142 + s3 >= 1
 c278: u142 + s5 >= 1
 c279: u142 + s55 >= 1
 c280: u142 + s57 >= 1
 c281: u143 + s1 >= 1
 c282: u144 + s17 >= 1
 c283: u144 + s44 >= 1
 c284: u145 + s8 >= 1
 c285: u145 + s24 >= 1
 c286: u145 + s59 >= 1
 c287: u146 + s53 >= 1
 c288: u147  = 0
 c289: u148  = 0
 c290: u149 + s59 >= 1
 c291: u150 + s9 >= 1
 c292: u150 + s19 >= 1
 c293: u150 + s43 >= 1
 c294: u150 + s47 >= 1
 c295: u150 + s54 >= 1
 c296: u151  = 0
 c297: u152 + s31 >= 1
 c298: u152 + s49 >= 1
 c299: u153 + s35 >= 1
 c300: u153 + s55 >= 1
 c301: u153 + s58 >= 1
 c302: u154 + s17 >= 1
 c303: u154 + s44 >= 1
 c304: u155 + s4 >= 1
 c305: u155 + s17 >= 1
 c306: u155 + s44 >= 1
 c307: u156  = 0
 c308: u157 + s18 >= 1
 c309: u157 + s25 >= 1
 c310: u157 + s50 >= 1
 c311: u158 + s0 >= 1
 c312: u159 + s1 >= 1
 c313: u159 + s28 >= 1
 c314: u160 + s18 >= 1
 c315: u161 + s34 >= 1
 c316: u162 + s1 >= 1
 c317: u162 + s16 >= 1
 c318: u162 + s28 >= 1
 c319: u163 + s34 >= 1
 c320: u164 + s12 >= 1
 c321: u164 + s23 >= 1
 c322: u165 + s7 >= 1
 c323: u165 + s10 >= 1
 c324: u166  = 0
 c325: u167 + s0 >= 1
 c326: u167 + s23 >= 1
 c327: u168  = 0
 c328: u169 + s49 >= 1
 c329: u170  = 0
 c330: u171 + s17 >= 1
 c331: u172 + s31 >= 1
 c332: u173  = 0
 c333: u174  = 0
 c334: u175 + s0 >= 1
 c335: u175 + s12 >= 1
 c336: u175 + s23 >= 1
 c337: u176 + s16 >= 1
 c338: u177  = 0
 c339: u178  = 0
 c340: u179 + s9 >= 1
 c341: u179 + s19 >= 1
 c342: u179 + s43 >= 1
 c343: u179 + s47 >= 1
 c344: u179 + s54 >= 1
 c345: u180 + s31 >= 1
 c346: u181 + s3 >= 1
 c347: u181 + s5 >= 1
 c348: u181 + s55 >= 1
 c349: u181 + s58 >= 1
 c350: u182 + s59 >= 1
 c351: u183 + s1 >= 1
 c352: u184 + s49 >= 1
 c353: u185 + s30 >= 1
 c354: u186 + s12 >= 1
 c355: u186 + s23 >= 1
 c356: u186 + s32 >= 1
 c357: u187 + s11 >= 1
 c358: u187 + s13 >= 1
 c359: u187 + s26 >= 1
 c360: u187 + s39 >= 1
 c361: u187 + s51 >= 1
 c362: u188 + s4 >= 1
 c363: u188 + s17 >= 1
 c364: u188 + s44 >= 1
 c365: u188 + s48 >= 1
 c366: u189 + s25 >= 1
 c367: u189 + s46 >= 1
 c368: u189 + s50 >= 1
 c369: u190 + s4 >= 1
 c370: u190 + s6 >= 1
 c371: u190 + s21 >= 1
 c372: u190 + s48 >= 1
 c373: u191 + s56 >= 1
 c374: u192  = 0
 c375: u193 + s19 >= 1
 c376: u193 + s55 >= 1
 c377: u193 + s57 >= 1
 c378: u194  = 0
 c379: u195 + s37 >= 1
 c380: u196 + s12 >= 1
 c381: u196 + s32 >= 1
 c382: u196 + s52 >= 1
 c383: u197  = 0
 c384: u198 + s7 >= 1
 c385: u198 + s10 >= 1
 c386: u199  = 0
 c387: u200 + s30 >= 1
 c388: u201 + s6 >= 1
 c389: u201 + s11 >= 1
 c390: u201 + s13 >= 1
 c391: u201 + s21 >= 1
 c392: u201 + s26 >= 1
 c393: u201 + s39 >= 1
 c394: u201 + s51 >= 1
 c395: u202 + s49 >= 1
 c396: u203 + s17 >= 1
 c397: u204 + s9 >= 1
 c398: u204 + s14 >= 1
 c399: u204 + s19 >= 1
 c400: u204 + s20 >= 1
 c401: u204 + s47 >= 1
 c402: u204 + s54 >= 1
 c403: u205  = 0
 c404: u206 + s40 >= 1
 c405: u206 + s58 >= 1
 c406: u207 + s11 >= 1
 c407: u207 + s13 >= 1
 c408: u207 + s26 >= 1
 c409: u207 + s39 >= 1
 c410: u208 + s40 >= 1
 c411: u208 + s58 >= 1
 c412: u209 + s30 >= 1
 c413: u210  = 0
 c414: u211 + s6 >= 1
 c415: u211 + s51 >= 1
 c416: u212 + s9 >= 1
 c417: u212 + s20 >= 1
 c418: u212 + s47 >= 1
 c419: u212 + s54 >= 1
 c420: u213 + s14 >= 1
 c421: u213 + s19 >= 1
 c422: u213 + s20 >= 1
 c423: u213 + s47 >= 1
 c424: u214 + s2 >= 1
 c425: u214 + s15 >= 1
 c426: u214 + s33 >= 1
 c427: u214 + s38 >= 1
 c428: u215 + s2 >= 1
 c429: u215 + s33 >= 1
 c430: u215 + s36 >= 1
 c431: u216 + s18 >= 1
 c432: u216 + s25 >= 1
 c433: u216 + s31 >= 1
 c434: u217  = 0
 c435: u218  = 0
 c436: u219 + s34 >= 1
 c437: u220 + s11 >= 1
 c438: u220 + s13 >= 1
 c439: u220 + s26 >= 1
 c440: u220 + s39 >= 1
 c441: u220 + s41 >= 1
 c442: u221 + s4 >= 1
 c443: u221 + s44 >= 1
 c444: u221 + s48 >= 1
 c445: u222 + s53 >= 1
 c446: u223  = 0
 c447: u224 + s37 >= 1
 c448: u225 + s14 >= 1
 c449: u225 + s20 >= 1
 c450: u225 + s47 >= 1
 c451: u226 + s30 >= 1
 c452: u227 + s17 >= 1
 c453: u227 + s44 >= 1
 c454: u228 + s22 >= 1
 c455: u229  = 0
 c456: u230 + s37 >= 1
 c457: u231 + s25 >= 1
 c458: u231 + s31 >= 1
 c459: u232 + s55 >= 1
 c460: u232 + s57 >= 1
 c461: u233  = 0
 c462: u234 + s3 >= 1
 c463: u234 + s5 >= 1
 c464: u234 + s45 >= 1
 c465: u234 + s57 >= 1
 c466: u235 + s42 >= 1
 c467: u236 + s27 >= 1
 c468: u236 + s32 >= 1
 c469: u236 + s35 >= 1
 c470: u236 + s52 >= 1
 c471: u237 + s42 >= 1
 c472: u238 + s19 >= 1
 c473: u239 + s53 >= 1
 c474: s0 <= 1
 c475: s1 <= 1
 c476: s2 <= 0
 c477: s3 <= 1
 c478: s4 <= 0
 c479: s5 <= 1
 c480: s6 <= 1
 c481: s7 <= 0
 c482: s8 <= 1
 c483: s9 <= 1
 c484: s10 <= 1
 c485: s11 <= 1
 c486: s12 <= 1
 c487: s13 <= 1
 c488: s14 <= 0
 c489: s15 <= 1
 c490: s16 <= 0
 c491: s17 <= 0
 c492: s18 <= 1
 c493: s19 <= 1
 c494: s20 <= 1
 c495: s21 <= 1
 c496: s22 <= 1
 c497: s23 <= 0
 c498: s24 <= 1
 c499: s25 <= 1
 c500: s26 <= 1
 c501: s27 <= 0
 c502: s28 <= 1
 c503: s29 <= 0
 c504: s30 <= 1
 c505: s31 <= 1
 c506: s32 <= 1
 c507: s33 <= 1
 c508: s34 <= 1
 c509: s35 <= 1
 c510: s36 <= 1
 c511: s37 <= 1
 c512: s38 <= 1
 c513: s39 <= 1
 c514: s40 <= 1
 c515: s41 <= 1
 c516: s42 <= 1
 c517: s43 <= 1
 c518: s44 <= 1
 c519: s45 <= 1
 c520: s46 <= 0
 c521: s47 <= 1
 c522: s48 <= 0
 c523: s49 <= 1
 c524: s50 <= 0
 c525: s51 <= 1
 c526: s52 <= 1
 c527: s53 <= 0
 c528: s54 <= 1
 c529: s55 <= 1
 c530: s56 <= 0
 c531: s57 <= 1
 c532: s58 <= 0
 c533: s59 <= 1
Bounds
 0 <= u0 <= 1
 0 <= u1 <= 1
 0 <= u2 <= 1
 0 <= u3 <= 1
 0 <= u4 <= 1
 0 <= u5 <= 1
 0 <= u6 <= 1
 0 <= u7 <= 1
 0 <= u8 <= 1
 0 <= u9 <= 1
 0 <= u10 <= 1
 0 <= u11 <= 1
 0 <= u12 <= 1
 0 <= u13 <= 1
 0 <= u14 <= 1
 0 <= u15 <= 1
 0 <= u16 <= 1
 0 <= u17 <= 1
 0 <= u18 <= 1
 0 <= u19 <= 1
 0 <= u20 <= 1
 0 <= u21 <= 1
 0 <= u22 <= 1
 0 <= u23 <= 1
 0 <= u24 <= 1
 0 <= u25 <= 1
 0 <= u26 <= 1
 0 <= u27 <= 1
 0 <= u28 <= 1
 0 <= u29 <= 1
 0 <= u30 <= 1
 0 <= u31 <= 1
 0 <= u32 <= 1
 0 <= u33 <= 1
 0 <= u34 <= 1
 0 <= u35 <= 1
 0 <= u36 <= 1
 0 <= u37 <= 1
 0 <= u38 <= 1
 0 <= u39 <= 1
 0 <= u40 <= 1
 0 <= u41 <= 1
 0 <= u42 <= 1
 0 <= u43 <= 1
 0 <= u44 <= 1
 0 <= u45 <= 1
 0 <= u46 <= 1
 0 <= u47 <= 1
 0 <= u48 <= 1
 0 <= u49 <= 1
 0 <= u50 <= 1
 0 <= u51 <= 1
 0 <= u52 <= 1
 0 <= u53 <= 1
 0 <= u54 <= 1
 0 <= u55 <= 1
 0 <= u56 <= 1
 0 <= u57 <= 1
 0 <= u58 <= 1
 0 <= u59 <= 1
 0 <= u60 <= 1
 0 <= u61 <= 1
 0 <= u62 <= 1
 0 <= u63 <= 1
 0 <= u64 <= 1
 0 <= u65 <= 1
 0 <= u66 <= 1
 0 <= u67 <= 1
 0 <= u68 <= 1
 0 <= u69 <= 1
 0 <= u70 <= 1
 0 <= u71 <= 1
 0 <= u72 <= 1
 0 <= u73 <= 1
 0 <= u74 <= 1
 0 <= u75 <= 1
 0 <= u76 <= 1
 0 <= u77 <= 1
 0 <= u78 <= 1
 0 <= u79 <= 1
 0 <= u80 <= 1
 0 <= u81 <= 1
 0 <= u82 <= 1
 0 <= u83 <= 1
 0 <= u84 <= 1
 0 <= u85 <= 1
 0 <= u86 <= 1
 0 <= u87 <= 1
 0 <= u88 <= 1
 0 <= u89 <= 1
 0 <= u90 <= 1
 0 <= u91 <= 1
 0 <= u92 <= 1
 0 <= u93 <= 1
 0 <= u94 <= 1
 0 <= u95 <= 1
 0 <= u96 <= 1
 0 <= u97 <= 1
 0 <= u98 <= 1
 0 <= u99 <= 1
 0 <= u100 <= 1
 0 <= u101 <= 1
 0 <= u102 <= 1
 0 <= u103 <= 1
 0 <= u104 <= 1
 0 <= u105 <= 1
 0 <= u106 <= 1
 0 <= u107 <= 1
 0 <= u108 <= 1
 0 <= u109 <= 1
 0 <= u110 <= 1
 0 <= u111 <= 1
 0 <= u112 <= 1
 0 <= u113 <= 1
 0 <= u114 <= 1
 0 <= u115 <= 1
 0 <= u116 <= 1
 0 <= u117 <= 1
 0 <= u118 <= 1
 0 <= u119 <= 1
 0 <= u120 <= 1
 0 <= u121 <= 1
 0 <= u122 <= 1
 0 <= u123 <= 1
 0 <= u124 <= 1
 0 <= u125 <= 1
 0 <= u126 <= 1
 0 <= u127 <= 1
 0 <= u128 <= 1
 0 <= u129 <= 1
 0 <= u130 <= 1
 0 <= u131 <= 1
 0 <= u132 <= 1
 0 <= u133 <= 1
 0 <= u134 <= 1
 0 <= u135 <= 1
 0 <= u136 <= 1
 0 <= u137 <= 1
 0 <= u138 <= 1
 0 <= u139 <= 1
 0 <= u140 <= 1
 0 <= u141 <= 1
 0 <= u142 <= 1
 0 <= u143 <= 1
 0 <= u144 <= 1
 0 <= u145 <= 1
 0 <= u146 <= 1
 0 <= u147 <= 1
 0 <= u148 <= 1
 0 <= u149 <= 1
 0 <= u150 <= 1
 0 <= u151 <= 1
 0 <= u152 <= 1
 0 <= u153 <= 1
 0 <= u154 <= 1
 0 <= u155 <= 1
 0 <= u156 <= 1
 0 <= u157 <= 1
 0 <= u158 <= 1
 0 <= u159 <= 1
 0 <= u160 <= 1
 0 <= u161 <= 1
 0 <= u162 <= 1
 0 <= u163 <= 1
 0 <= u164 <= 1
 0 <= u165 <= 1
 0 <= u166 <= 1
 0 <= u167 <= 1
 0 <= u168 <= 1
 0 <= u169 <= 1
 0 <= u170 <= 1
 0 <= u171 <= 1
 0 <= u172 <= 1
 0 <= u173 <= 1
 0 <= u174 <= 1
 0 <= u175 <= 1
 0 <= u176 <= 1
 0 <= u177 <= 1
 0 <= u178 <= 1
 0 <= u179 <= 1
 0 <= u180 <= 1
 0 <= u181 <= 1
 0 <= u182 <= 1
 0 <= u183 <= 1
 0 <= u184 <= 1
 0 <= u185 <= 1
 0 <= u186 <= 1
 0 <= u187 <= 1
 0 <= u188 <= 1
 0 <= u189 <= 1
 0 <= u190 <= 1
 0 <= u191 <= 1
 0 <= u192 <= 1
 0 <= u193 <= 1
 0 <= u194 <= 1
 0 <= u195 <= 1
 0 <= u196 <= 1
 0 <= u197 <= 1
 0 <= u198 <= 1
 0 <= u199 <= 1
 0 <= u200 <= 1
 0 <= u201 <= 1
 0 <= u202 <= 1
 0 <= u203 <= 1
 0 <= u204 <= 1
 0 <= u205 <= 1
 0 <= u206 <= 1
 0 <= u207 <= 1
 0 <= u208 <= 1
 0 <= u209 <= 1
 0 <= u210 <= 1
 0 <= u211 <= 1
 0 <= u212 <= 1
 0 <= u213 <= 1
 0 <= u214 <= 1
 0 <= u215 <= 1
 0 <= u216 <= 1
 0 <= u217 <= 1
 0 <= u218 <= 1
 0 <= u219 <= 1
 0 <= u220 <= 1
 0 <= u221 <= 1
 0 <= u222 <= 1
 0 <= u223 <= 1
 0 <= u224 <= 1
 0 <= u225 <= 1
 0 <= u226 <= 1
 0 <= u227 <= 1
 0 <= u228 <= 1
 0 <= u229 <= 1
 0 <= u230 <= 1
 0 <= u231 <= 1
 0 <= u232 <= 1
 0 <= u233 <= 1
 0 <= u234 <= 1
 0 <= u235 <= 1
 0 <= u236 <= 1
 0 <= u237 <= 1
 0 <= u238 <= 1
 0 <= u239 <= 1
 0 <= s0 <= 1
 0 <= s1 <= 1
 0 <= s2 <= 1
 0 <= s3 <= 1
 0 <= s4 <= 1
 0 <= s5 <= 1
 0 <= s6 <= 1
 0 <= s7 <= 1
 0 <= s8 <= 1
 0 <= s9 <= 1
 0 <= s10 <= 1
 0 <= s11 <= 1
 0 <= s12 <= 1
 0 <= s13 <= 1
 0 <= s14 <= 1
 0 <= s15 <= 1
 0 <= s16 <= 1
 0 <= s17 <= 1
 0 <= s18 <= 1
 0 <= s19 <= 1
 0 <= s20 <= 1
 0 <= s21 <= 1
 0 <= s22 <= 1
 0 <= s23 <= 1
 0 <= s24 <= 1
 0 <= s25 <= 1
 0 <= s26 <= 1
 0 <= s27 <= 1
 0 <= s28 <= 1
 0 <= s29 <= 1
 0 <= s30 <= 1
 0 <= s31 <= 1
 0 <= s32 <= 1
 0 <= s33 <= 1
 0 <= s34 <= 1
 0 <= s35 <= 1
 0 <= s36 <= 1
 0 <= s37 <= 1
 0 <= s38 <= 1
 0 <= s39 <= 1
 0 <= s40 <= 1
 0 <= s41 <= 1
 0 <= s42 <= 1
 0 <= s43 <= 1
 0 <= s44 <= 1
 0 <= s45 <= 1
 0 <= s46 <= 1
 0 <= s47 <= 1
 0 <= s48 <= 1
 0 <= s49 <= 1
 0 <= s50 <= 1
 0 <= s51 <= 1
 0 <= s52 <= 1
 0 <= s53 <= 1
 0 <= s54 <= 1
 0 <= s55 <= 1
 0 <= s56 <= 1
 0 <= s57 <= 1
 0 <= s58 <= 1
 0 <= s59 <= 1
Binaries
 u0  u1  u2  u3  u4  u5  u6  u7  u8  u9  u10  u11  u12  u13  u14  u15  u16 
 u17  u18  u19  u20  u21  u22  u23  u24  u25  u26  u27  u28  u29  u30  u31 
 u32  u33  u34  u35  u36  u37  u38  u39  u40  u41  u42  u43  u44  u45  u46 
 u47  u48  u49  u50  u51  u52  u53  u54  u55  u56  u57  u58  u59  u60  u61 
 u62  u63  u64  u65  u66  u67  u68  u69  u70  u71  u72  u73  u74  u75  u76 
 u77  u78  u79  u80  u81  u82  u83  u84  u85  u86  u87  u88  u89  u90  u91 
 u92  u93  u94  u95  u96  u97  u98  u99  u100  u101  u102  u103  u104  u105 
 u106  u107  u108  u109  u110  u111  u112  u113  u114  u115  u116  u117  u118 
 u119  u120  u121  u122  u123  u124  u125  u126  u127  u128  u129  u130  u131 
 u132  u133  u134  u135  u136  u137  u138  u139  u140  u141  u142  u143  u144 
 u145  u146  u147  u148  u149  u150  u151  u152  u153  u154  u155  u156  u157 
 u158  u159  u160  u161  u162  u163  u164  u165  u166  u167  u168  u169  u170 
 u171  u172  u173  u174  u175  u176  u177  u178  u179  u180  u181  u182  u183 
 u184  u185  u186  u187  u188  u189  u190  u191  u192  u193  u194  u195  u196 
 u197  u198  u199  u200  u201  u202  u203  u204  u205  u206  u207  u208  u209 
 u210  u211  u212  u213  u214  u215  u216  u217  u218  u219  u220  u221  u222 
 u223  u224  u225  u226  u227  u228  u229  u230  u231  u232  u233  u234  u235 
 u236  u237  u238  u239  s0  s1  s2  s3  s4  s5  s6  s7  s8  s9  s10  s11  s12 
 s13  s14  s15  s16  s17  s18  s19  s20  s21  s22  s23  s24  s25  s26  s27 
 s28  s29  s30  s31  s32  s33  s34  s35  s36  s37  s38  s39  s40  s41  s42 
 s43  s44  s45  s46  s47  s48  s49  s50  s51  s52  s53  s54  s55  s56  s57 
 s58  s59 
End
